47
Properties=species:S:1:pos:R:3:REF_forces:R:3 REF_energy=-47025.0051699783507502 charge=0
C -5.7027320000000001 0.0947220000000000 -1.2358720000000001 0.9381815244194365 -1.3462784645483850 -0.1824372665062908
C -7.1806070000000002 -0.0065750000000000 -1.0628059999999999 -3.1431863464679326 0.7762837741710964 0.7823138342905287
C -5.3524589999999996 -1.7547600000000001 0.5208540000000000 0.0478581578866407 1.0116349133562299 -0.3022646696293593
C -5.2836140000000000 -0.9691140000000000 -2.2890450000000002 -0.6772022954832798 1.6226598367077512 -0.2990609205834212
N -3.5295269999999999 -0.3678950000000000 0.1490430000000000 1.4580769803821472 2.7260825227556840 0.8739407587563724
S -2.5049079999999999 1.0842280000000000 0.3669210000000000 -0.0530229903052086 -2.0429045716999532 1.6269471515514196
O -6.3342080000000003 -2.1131050000000000 1.0757260000000000 -0.7670633347431693 -0.3234133831161310 0.4114450823392767
O -2.6848779999999999 1.8331519999999999 1.5583380000000000 -1.0618123607348524 -0.1285047226783858 1.3989156865062808
C -0.8145140000000000 0.4741710000000000 0.5376240000000000 -0.1582039489030297 0.4296571329965781 -2.6382112089597931
C -0.1977690000000000 0.4479340000000000 -0.7178350000000000 2.7517878484514768 -0.1694423959318555 4.6745892404825558
C 1.1948470000000000 0.4705450000000000 -0.5488480000000000 -1.8024793086225996 0.6290734518354748 0.7837569431813559
C 1.9648479999999999 0.4600660000000000 0.6708900000000000 -0.4072636969538143 -1.7076536230513251 -0.0451912037990600
C 1.2778950000000000 0.3395860000000000 1.8879410000000001 1.0416156753981938 0.1262551100873115 -1.1291759885323214
C -0.0855360000000000 0.4862710000000000 1.6992510000000001 -1.3245293470062649 -0.5112874019317643 2.5403854571503262
O 1.9443589999999999 0.5480490000000000 -1.6257490000000001 2.0800285787697246 -0.6834873062113467 -0.4913215502542748
C 3.2177270000000000 0.3258630000000000 -1.1553940000000000 1.1800451655574451 -0.7559967402625599 -1.5607607805579202
C 4.6524089999999996 0.2176340000000000 0.7131520000000000 0.6587053665742971 -0.1726434196082379 0.7914967356094796
C 8.5613539999999997 0.1783040000000000 1.7850170000000001 1.3098421247818146 2.0714267468088963 -0.4475247072264404
C 5.7208150000000000 0.0864130000000000 -0.2021800000000000 0.0989633107776427 0.3856820610842079 1.3181287394713785
N 7.0681159999999998 0.0284490000000000 0.3479980000000000 -0.6504753675806000 -0.3806161647227222 -0.6900525157829897
C 5.5309439999999999 0.0283090000000000 -1.5852040000000001 -0.5562110567157523 -1.8575128503289788 0.2573834894727878
N 9.1517619999999997 -0.5001040000000000 0.7535849999999999 -0.8241719111228508 -1.2445132681791162 0.5330649044549182
C 8.1488219999999991 -0.6972330000000000 -0.0838610000000000 -0.2542714259724720 2.1839732480305565 2.0659608896095807
N 7.3560429999999997 0.6566070000000001 1.5203500000000001 0.1067515427929656 -1.5654238878678863 0.0258954844998939
C 4.2226179999999998 0.0879740000000000 -2.0871949999999999 0.0064583030941618 1.4530079472745689 0.7268050498400992
C 3.3613050000000002 0.2225490000000000 0.2448370000000000 -1.7083593395000751 1.7094236220226469 -2.3569894262031332
C -5.0652540000000004 -0.2618910000000000 0.1016330000000000 1.4510972061056209 -0.7279905855968702 1.0455837620493651
O -2.6301290000000002 1.7919480000000001 -0.8276190000000000 -0.3093363865618435 0.9599975934929086 -2.8314889671176968
O -4.3442660000000002 -2.5891609999999998 0.2108220000000000 -1.8734926690538825 -1.6527231311673953 0.9721156149793170
H -7.6351110000000002 0.6498450000000000 -0.2367150000000000 1.0509493976399213 -0.7424874947510186 -0.8570881532867424
H -7.7088970000000003 0.4095860000000000 -1.9725420000000000 0.5662901932420233 -0.8989660276148943 0.7357196308129720
H -5.4854269999999996 1.1119530000000000 -1.5264620000000000 0.5385635689330375 0.2335006132567483 -0.0707340357628474
H -6.0476830000000001 -0.9014770000000000 -3.0775420000000002 0.8049183064966319 0.1197819974378276 -0.3701750168441343
H -4.2350430000000001 -0.9013530000000000 -2.6239520000000001 -0.6166056060266497 -0.0320868556437890 -0.0105425521948903
H -7.5513009999999996 -1.0373420000000000 -0.7830620000000000 0.4614852327987679 1.0266753023374573 -0.7198664132172452
H -5.5083080000000004 -1.9051950000000000 -1.8470329999999999 0.1837873014556843 -1.1899169168871402 0.3083986537463815
H -3.7267519999999998 -2.0472869999999999 -0.2361580000000000 1.6018047432240661 0.5436264828146320 -1.3801367075593070
H -5.4692910000000001 0.4244940000000000 0.8525860000000000 0.2611916534953076 -0.3110787204610703 0.2344193713294539
H -0.7493440000000000 0.4582280000000000 -1.5664190000000000 -1.0414935479888541 0.1062633931100757 -2.7383016914480587
H 1.8596440000000001 0.1192450000000000 2.8318520000000000 -1.2807517872535892 0.6122428550105592 -1.0198726770820576
H -0.7324130000000000 0.5608830000000000 2.5431170000000001 -0.1446680153386683 0.0310324975801658 0.9288556183319070
H 4.7674029999999998 0.3083330000000000 1.7988839999999999 0.6092438172137082 -0.1718953827982727 -0.5398058232298093
H 9.1706109999999992 0.5630650000000000 2.6297950000000001 -0.7565467506921598 -0.4936590945800740 -0.6295669494133421
H 6.3204820000000002 -0.4858130000000000 -2.1370670000000000 0.0389280988715737 1.0585867058883336 -0.4105004589668246
H 8.1659240000000004 -1.2721640000000001 -0.9513450000000000 -0.0170688866838129 -0.7103858295519074 -1.2683910536105136
H 3.9119500000000000 0.2236190000000000 -3.1231100000000001 0.5618255236889594 -0.5650555494111810 0.0583860033703432
H -3.2357520000000002 -0.9439640000000000 0.9515070000000000 -0.3801831909178203 0.5690560833866861 -0.1050473640675200
22
Properties=species:S:1:pos:R:3:REF_forces:R:3 REF_energy=-20137.8245203075894096 charge=0
C -1.2101040000000001 -1.0179330000000000 0.2616000000000000 2.1545334461343844 0.4577637663813627 -0.6533931070893808
C 1.4104930000000000 0.9447750000000000 1.3637640000000000 1.4817024891523989 -2.5749849492583574 -2.4497182741446588
C 0.0728120000000000 0.9552720000000000 -0.4861760000000000 -0.7977098068656869 -0.5291156382803022 -0.8753949748136914
C 0.8931080000000000 -0.3585670000000000 -0.6468540000000000 -2.5403810862746234 -0.4698376163121404 -0.7258515304500404
C -1.3883010000000000 0.4429040000000000 -0.0297770000000000 0.7656626490576918 0.6361252684279949 0.8876738959480258
C 1.9614110000000000 -0.3434960000000000 0.4296640000000000 -0.3627291529514998 3.1780789957804463 -0.8030473145855446
N 3.2090719999999999 0.1962870000000000 -0.3726670000000000 0.1764050980821078 0.6469376322089090 1.1216099512688964
O 4.2797749999999999 -0.1727050000000000 0.0867790000000000 -0.2067717827375861 0.4344858707846426 -0.6516894425846061
O 3.0302009999999999 1.0109870000000001 -1.2579600000000000 0.4790738423146642 -0.5871684780779661 0.3539582966561448
O -0.1192460000000000 -1.3788430000000000 -0.5736869999999999 2.7339785868456952 -0.3887433710043055 -0.2876213618502044
O 0.7685390000000000 1.7350550000000000 0.4431880000000000 -0.8688269370283584 1.0824280330741640 0.2238980564482719
O -2.2489119999999998 0.5584910000000000 -1.1166760000000000 -1.8700894538097004 0.3325437310825154 -0.0906734564978521
O 2.3562319999999999 -1.4426699999999999 1.0520630000000000 0.7355939552810029 -0.4288733064279179 1.7135240176524416
H -0.9668330000000001 -1.1944090000000001 1.3247119999999999 -0.6102595573049464 -0.4899014784495042 -0.3331476318384260
H -1.8947369999999999 -1.5797150000000000 -0.3310390000000000 -1.7680004526839628 -0.6732850138343940 1.1369246255559848
H 0.8823110000000000 0.4341770000000000 2.1320510000000001 -1.3126688472318455 -0.2505304191695724 0.6729499990672996
H 2.1963480000000000 1.4750110000000001 1.8092370000000000 1.2185464612721679 0.9174307663098782 0.5452643784955979
H 0.0241830000000000 1.4461740000000001 -1.5309839999999999 -0.1934300703206255 -0.2511913469978864 2.0443726717153869
H 1.2923940000000000 -0.2897860000000000 -1.6708630000000000 0.0332401497644943 -0.8686065934708758 0.6017603123679633
H -1.8208839999999999 0.9178269999999999 0.8856930000000000 0.6657285924975150 0.3878240472888619 -0.6595302279524956
H -3.1342240000000001 0.3067700000000000 -0.7474250000000000 1.0087711670178938 0.4046984042928716 -0.9287091682848334
H 3.1172080000000002 -1.1269739999999999 1.6250320000000000 -0.9223691873670467 -0.9660782015042907 -0.8431597665063463
13
Properties=species:S:1:pos:R:3:REF_forces:R:3 REF_energy=-20645.5110096958997019 charge=0
C -1.2674220000000000 0.4798070000000000 0.8593280000000000 1.0136335862599024 2.4864713738445068 0.0131186949119892
C -0.0348930000000000 0.8207210000000000 -0.0673110000000000 -2.3955616843704406 -0.2553652247615536 1.1637361941810953
C 0.0128130000000000 2.0618859999999999 -0.5621560000000000 2.5781354764648570 -0.0502392567032654 -1.2374981155204317
C 0.8738650000000000 -0.3387950000000000 -0.0461480000000000 1.7123722147716820 0.0539963586131643 -1.0718432633621926
H -3.3254530000000000 -0.9993680000000000 -0.8217670000000000 3.9775700116280803 0.9435693743429758 0.7892313364438085
H -1.0809810000000000 1.0771350000000000 1.7816060000000000 -1.0373427587333106 -0.9130331511323002 -0.2957913512916071
H 0.9435270000000000 2.3711340000000001 -1.1845570000000001 -1.6858472213264666 -0.6395393337283332 1.1483069001064625
H -0.7224130000000000 2.8582380000000001 -0.4222930000000000 -0.0002540764334941 -0.6500323664726154 0.1155042470986376
H -0.6871440000000000 -1.4791920000000001 -0.6881350000000001 2.0321517546727303 0.5929673960058267 1.5555523422264597
N -2.3910320000000000 -0.0629100000000000 0.6194780000000000 1.3474704280635423 0.0026397518140898 0.4329268051325263
O -2.2983129999999998 -0.7218810000000000 -0.6116310000000000 -4.4952065990276413 -1.0898579047039336 -1.4356630269346142
O 0.2302280000000000 -1.5035289999999999 -0.1869580000000000 -0.9050112058220511 -0.2995814147465110 -1.1008689633520852
S 2.5405120000000001 -0.2328760000000000 0.1428270000000000 -2.1421099775694579 -0.1819956023720507 -0.0767117996400487
14
Properties=species:S:1:pos:R:3:REF_forces:R:3 REF_energy=-8834.1713822645106120 charge=0
C -1.8805520000000000 0.2798370000000000 0.0956650000000000 -0.0257074854226111 0.0508493795292940 0.0136182088717062
C -0.4136450000000000 0.1514060000000000 0.3049050000000000 0.0768713623142304 0.1355956714639618 0.0978277572700836
C 0.5385360000000000 1.0358339999999999 0.6051620000000000 -0.2082372602275977 -0.0924346108736340 -0.0563925240954465
C 1.8235530000000000 0.2754980000000000 0.6438510000000000 0.0841067556862636 -0.1981136950353606 -0.0217732859136526
N 1.7223980000000001 -0.9797410000000000 0.4074750000000000 -0.0110682399867563 0.2937930897644710 0.1372348526966051
C 0.3037480000000000 -1.1882310000000000 0.2129690000000000 -0.2734409040969310 -0.4521539788162608 -0.0682363116980615
O -0.2123370000000000 -2.2565870000000001 0.0341340000000000 0.2535067284127694 0.5117078287522959 0.0791618040265746
H -2.1955410000000000 1.3264359999999999 0.0998780000000000 0.0529615923571025 -0.1469661703610760 0.0200937897804104
H -2.4242360000000001 -0.2568370000000000 0.8804270000000000 0.0643822791916970 0.0482560618417868 -0.1034387789647956
H -2.1717110000000002 -0.1747860000000000 -0.8577490000000000 0.0645634905561239 0.0467729465827632 0.1448373482055972
H 0.4452180000000000 -0.2677550000000000 -2.3174199999999998 0.0847402755528183 -0.0149886069596675 -0.0721670145064578
H 0.4403350000000000 2.1001660000000002 0.7839210000000000 0.0145843266682021 -0.1453331597764836 -0.0610258066065001
H 2.7906209999999998 0.7341070000000000 0.8436480000000000 -0.1245512398942684 -0.0724540524849569 -0.0277759894933928
H 1.0905640000000001 -0.6266699999999999 -2.2241309999999999 -0.0527116811110428 0.0354692963728667 -0.0819640495726704
7
Properties=species:S:1:pos:R:3:REF_forces:R:3 REF_energy=-6663.4863032268467578 charge=0
C 0.1980230000000000 0.1401260000000000 0.0542050000000000 0.8994164849226068 -0.6461564795877376 -4.3341813269916241
N 1.5015680000000000 0.3867050000000000 0.4282580000000000 6.1686560628227260 0.5653704067279759 -0.2209779001023377
O 3.6626940000000001 0.0706440000000000 -0.0934980000000000 1.4469037879564592 0.5435261583617385 0.7268770921560929
O 2.4936780000000001 -0.2405610000000000 -0.3161900000000000 -5.7015144026440057 0.7130088177721258 0.8360932946247054
H -0.0951800000000000 0.8337890000000000 -0.8198560000000000 0.4688709842949735 -1.3540988867777066 0.6248866157109008
H 0.1664930000000000 -0.9251560000000000 -0.1461860000000000 -1.2750952570295024 -0.2073740379873498 -0.2723530188455647
H -0.3436820000000000 0.5501750000000000 0.8044810000000000 -2.0072376603232578 0.3857239700688866 2.6396551920257609
